Copyright (C) 2013-2015, Filipe Brandao
Build (method = -2)
  #dp: 7281
  Step-3' Graph: 99 vertices and 2474 arcs (0.01s)
  Step-4' Graph: 99 vertices and 2474 arcs (0.01s)
  #V4/#V3 = 1.00
  #A4/#A3 = 1.00
Ready! (0.01s)
Optimize a model with 184 rows, 2475 columns and 7240 nonzeros
Found heuristic solution: objective 633
Presolve removed 38 rows and 38 columns
Presolve time: 0.01s
Presolved: 146 rows, 2437 columns, 7128 nonzeros
Variable types: 0 continuous, 2437 integer (0 binary)
Optimize a model with 146 rows, 2437 columns and 7128 nonzeros
Presolved: 146 rows, 2437 columns, 7128 nonzeros

Root barrier log...

Ordering time: 0.00s

Barrier statistics:
 AA' NZ     : 4.668e+03
 Factor NZ  : 7.191e+03 (roughly 1 MByte of memory)
 Factor Ops : 4.846e+05 (less than 1 second per iteration)
 Threads    : 1

                  Objective                Residual
Iter       Primal          Dual         Primal    Dual     Compl     Time
   0   1.07275786e+04 -4.66882035e+04  8.53e+04 2.22e-16  1.05e+02     0s
   1   3.46999780e+03 -1.95337173e+04  1.63e+04 6.66e-16  2.17e+01     0s
   2   9.86606458e+02 -8.70517516e+03  1.48e+03 5.47e-03  3.31e+00     0s
   3   7.44035197e+02 -1.82117448e+03  8.51e+01 1.29e-04  5.64e-01     0s
   4   6.39709986e+02 -8.72834238e+02  2.50e-01 2.87e-15  3.07e-01     0s
   5   5.11044454e+02 -6.68562264e+01  1.32e-01 2.44e-15  1.17e-01     0s
   6   4.34418590e+02  1.26646116e+02  6.76e-02 2.23e-15  6.25e-02     0s
   7   3.82938450e+02  2.21299515e+02  3.20e-02 2.69e-15  3.28e-02     0s
   8   3.56576328e+02  2.77121725e+02  1.53e-02 2.78e-15  1.61e-02     0s
   9   3.47893820e+02  2.96116592e+02  9.86e-03 3.45e-15  1.05e-02     0s
  10   3.45144237e+02  3.13373389e+02  7.37e-03 2.62e-15  6.45e-03     0s
  11   3.41075497e+02  3.23809208e+02  2.52e-03 2.73e-15  3.51e-03     0s
  12   3.39813722e+02  3.29362389e+02  1.60e-03 2.56e-15  2.12e-03     0s
  13   3.39160839e+02  3.32492790e+02  1.17e-03 2.88e-15  1.35e-03     0s
  14   3.38136021e+02  3.34297534e+02  5.43e-04 3.01e-15  7.80e-04     0s
  15   3.37768040e+02  3.35329478e+02  3.23e-04 4.11e-15  4.95e-04     0s
  16   3.37464455e+02  3.36190066e+02  1.48e-04 2.30e-15  2.59e-04     0s
  17   3.37269398e+02  3.36549537e+02  4.58e-05 3.52e-15  1.46e-04     0s
  18   3.37197192e+02  3.36668995e+02  2.41e-05 3.51e-15  1.07e-04     0s
  19   3.37122654e+02  3.36999019e+02  6.45e-06 2.78e-15  2.51e-05     0s
  20   3.37102764e+02  3.37048613e+02  3.76e-06 2.92e-15  1.10e-05     0s
  21   3.37076569e+02  3.37067458e+02  4.63e-07 2.36e-15  1.85e-06     0s
  22   3.37072749e+02  3.37072597e+02  1.09e-08 2.00e-15  3.08e-08     0s
  23   3.37072650e+02  3.37072650e+02  3.36e-11 2.38e-15  2.08e-13     0s

Barrier solved model in 23 iterations and 0.02 seconds
Optimal objective 3.37072650e+02


Root relaxation: objective 3.370726e+02, 272 iterations, 0.03 seconds

    Nodes    |    Current Node    |     Objective Bounds      |     Work
 Expl Unexpl |  Obj  Depth IntInf | Incumbent    BestBd   Gap | It/Node Time

     0     0  337.07265    0   54  633.00000  337.07265  46.7%     -    0s
H    0     0                     339.0000000  337.07265  0.57%     -    0s
H    0     0                     338.0000000  337.07265  0.27%     -    0s

Explored 0 nodes (882 simplex iterations) in 0.10 seconds
Thread count was 1 (of 4 available processors)

Optimal solution found (tolerance 0.00e+00)
Best objective 3.380000000000e+02, best bound 3.380000000000e+02, gap 0.0%
Preprocessing time: 0.01 seconds
Gurobi run time: 0.10 seconds
Total run time: 0.11 seconds
Objective: 338
Solution:
7 x [i=1, i=73]
2 x [i=1, i=74]
4 x [i=1, i=85, i=85]
13 x [i=2, i=72]
3 x [i=2, i=84, i=85]
6 x [i=3, i=71]
11 x [i=4, i=70]
2 x [i=4, i=83, i=84]
9 x [i=5, i=69]
7 x [i=6, i=68]
6 x [i=7, i=67]
2 x [i=7, i=82, i=82]
7 x [i=8, i=66]
6 x [i=9, i=65]
4 x [i=10, i=64]
5 x [i=11, i=63]
5 x [i=12, i=62]
3 x [i=12, i=79, i=80]
9 x [i=13, i=61]
9 x [i=14, i=60]
4 x [i=14, i=75, i=82]
3 x [i=14, i=76, i=81]
9 x [i=15, i=59]
2 x [i=15, i=76, i=80]
4 x [i=16, i=58]
8 x [i=17, i=57]
9 x [i=18, i=56]
1 x [i=18, i=74]
1 x [i=18, i=74, i=79]
9 x [i=19, i=55]
8 x [i=20, i=54]
1 x [i=20, i=75, i=76]
5 x [i=21, i=53]
8 x [i=22, i=52]
4 x [i=22, i=68, i=81]
1 x [i=22, i=71]
4 x [i=23, i=51]
8 x [i=23, i=71, i=77]
7 x [i=24, i=50]
3 x [i=25, i=49]
1 x [i=25, i=64, i=82]
3 x [i=25, i=68, i=78]
9 x [i=26, i=48]
5 x [i=27, i=47]
2 x [i=27, i=64, i=80]
12 x [i=28, i=46]
5 x [i=29, i=45]
3 x [i=29, i=63, i=79]
2 x [i=29, i=64, i=78]
6 x [i=30, i=44]
7 x [i=31, i=43]
2 x [i=31, i=65, i=75]
6 x [i=32, i=42]
2 x [i=32, i=58, i=81]
1 x [i=32, i=63, i=76]
7 x [i=33, i=41]
4 x [i=34, i=40]
5 x [i=35, i=39]
1 x [i=35, i=41]
8 x [i=36, i=38]
1 x [i=36, i=39]
3 x [i=36, i=53, i=82]
1 x [i=36, i=57, i=78]
1 x [i=36, i=58, i=77]
1 x [i=37, i=40]
4 x [i=37, i=37]
3 x [i=39, i=48, i=84]
4 x [i=39, i=58, i=74]
2 x [i=40, i=48, i=83]
1 x [i=40, i=55, i=76]
1 x [i=40, i=65, i=66]
1 x [i=41, i=50, i=82]
1 x [i=44, i=53, i=74]
1 x [i=46, i=79]
2 x [i=46, i=46, i=79]
1 x [i=51, i=65, i=71]
